l=729;
a=5;
setup_costs=[|1,1,2,0,1,
|1,3,2,0,0,
|2,2,2,1,1,
|0,0,1,2,2,
|1,0,1,2,1,
|0,0,0,0,0|];
setup_times=[|1,3,3,1,2,
|3,3,3,3,1,
|3,3,0,2,2,
|1,3,2,0,1,
|2,1,2,1,3,
|0,0,0,0,0|];
m=2;
min_cap=[0,0];
max_cap=[63,23];

initState=[2,3];
s=5;
m_a_s = [|107,374,516,523,606,
|0,133,369,384,407|];
m_a_e = [|326,486,522,597,719,
|0,331,382,406,728|];
n=50;
eligible_machine = [{2},
{1},
{2,1},
{2},
{1},
{2},
{2},
{1},
{2},
{1},
{2,1},
{1,2},
{1},
{1},
{1},
{2},
{2},
{2,1},
{1},
{2},
{2,1},
{2},
{1,2},
{2},
{1},
{1,2},
{1},
{1},
{2},
{1},
{2},
{1},
{2,1},
{2},
{2},
{1,2},
{2,1},
{2},
{2},
{2,1},
{2},
{2},
{1},
{2},
{1},
{1},
{1},
{2},
{1},
{2}];
earliest_start=[62,128,12,41,26,82,57,90,16,23,64,69,29,75,137,88,59,89,20,43,76,21,143,84,15,21,143,138,23,82,80,20,143,116,102,9,51,131,97,52,44,18,11,69,140,127,127,7,7,69];
latest_end=[65,133,27,42,33,87,64,102,27,34,65,79,37,76,152,93,65,102,33,51,80,27,155,87,31,29,156,154,32,85,95,27,146,131,118,17,60,134,105,58,49,19,19,79,141,132,139,17,18,80];
min_time=[2,4,9,1,6,3,4,7,7,9,1,6,5,1,10,3,4,7,10,5,3,6,10,3,10,5,8,9,5,2,10,5,2,9,10,7,8,2,7,5,4,1,6,10,1,4,9,7,10,7];
max_time=[10,10,10,10,10,10,10,10,10,10,10,10,10,10,10,10,10,10,10,10,10,10,10,10,10,10,10,10,10,10,10,10,10,10,10,10,10,10,10,10,10,10,10,10,10,10,10,10,10,10];
size=[14,15,13,18,4,13,19,20,8,20,20,10,1,18,11,10,10,2,18,4,18,20,14,2,19,5,11,13,10,10,14,14,13,7,20,1,17,12,6,17,16,17,12,16,10,3,1,18,20,16];
attribute=[4,5,4,3,2,2,3,1,4,3,4,5,5,5,4,1,4,5,2,1,5,5,2,1,3,1,3,4,3,1,2,2,2,2,1,5,3,1,4,5,2,1,1,2,2,4,4,5,4,4];

upper_bound_integer_objective=2233289;
mult_factor_total_runtime=7701;
mult_factor_finished_toolate=151;
mult_factor_total_setuptimes=0;
mult_factor_total_setupcosts=1;
running_time_bound=289;
min_duration=1;
max_duration=10;
max_setup_time=3;
max_setup_cost=3;
